32      4       
11      14      18      19      
0       0       0       0       0       2       2       3       
8       0       0       18      5       3       4       5       6       
3       0       8       0       19      3       5       6       7       
9       8       0       5       0       3       7       9       13      
6       11      0       18      0       7       9       11      12      13      15      19      23      
3       0       10      0       18      5       8       14      19      20      24      
1       0       0       13      10      11      10      11      12      14      15      18      19      21      22      23      24      
4       7       0       0       1       10      10      11      12      13      15      16      17      21      22      23      
7       5       8       0       0       8       10      14      16      17      18      20      21      24      
6       0       14      0       15      5       25      26      27      28      31      
5       11      0       18      0       5       25      26      27      28      31      
10      7       0       0       19      5       25      26      27      28      31      
9       0       7       9       0       5       25      26      27      28      31      
1       3       0       12      0       4       26      27      28      31      
10      10      0       0       13      4       25      26      27      28      
3       0       9       0       7       4       25      26      28      31      
4       0       14      0       19      4       25      26      27      28      
3       6       6       0       0       4       25      26      28      31      
6       0       14      0       17      4       26      27      30      31      
8       9       0       7       0       4       26      27      30      31      
8       0       0       15      19      3       25      26      27      
6       11      0       18      0       3       25      26      27      
2       6       0       15      0       2       26      28      
9       0       13      0       19      2       25      27      
4       0       12      18      0       2       29      30      
5       0       0       1       19      1       29      
4       11      14      0       0       1       29      
1       9       14      0       0       1       30      
10      10      0       18      0       1       32      
1       0       11      0       14      1       32      
10      0       4       18      0       1       32      
0       0       0       0       0       0       
